Cost:    1051.78
Running time:     300.00

Solution: 
0    106    107     67     69     70     71     73     76     68     77     79     80     78     75     72     74      0      
0     88      8     12     13     14     15     11     10      9      7      6      5      4      3      1      2      0      
0    109     21     20     26     23     25     22     24     27     33     30     31     34     36     29     35     32     28     19     16     17      0      
0    100     52     54     57     59     65     61     62     64     66     63     60     56     58     55     53      0      
0     95     37     38     39     42     41     44     47     46     49     50     51     48     45     43     40      0      
0    120    105    102    101     99    104    103    116     98    110    115     97     94     96     93     89     85     86    111      0      
0    119     82     81    112     84    117    113     83    108    118     18    114     90     91     92     87      0      
